words_hard_train/7964.qaiger
aag 18 8 0 1 10
2
4
8
12
14
20
24
26
37
6 3 5
10 6 9
16 13 15
18 10 16
22 18 21
28 24 26
30 22 29
32 18 27
34 33 20
36 31 35
i0 2 y2[3]
i1 2 y2[6]
i2 2 y2[4]
i3 2 y2[2]
i4 2 y2[5]
i5 2 y2[7]
i6 2 y2[0]
i7 2 y2[1]
o0 bv[0]
c
simplified
  <=
    or
      1 x2
      invert
        1 x2
    subtract
      1
      2 y2
