words_hard_train/7964.qaiger.qdimacs
p cnf 18 31
a 0
e 1 2 3 4 5 6 7 8 9 10 11 12 13 14 15 16 17 18 0
1 2 3 0
-1 -3 0
-2 -3 0
-3 4 5 0
3 -5 0
-4 -5 0
6 7 8 0
-6 -8 0
-7 -8 0
-5 -8 9 0
5 -9 0
8 -9 0
-9 10 11 0
9 -11 0
-10 -11 0
-12 -13 14 0
12 -14 0
13 -14 0
-11 14 15 0
11 -15 0
-14 -15 0
-9 13 16 0
9 -16 0
-13 -16 0
16 -10 17 0
-16 -17 0
10 -17 0
15 17 18 0
-15 -18 0
-17 -18 0
-18 0
